(set-info :source |printed by MathSAT|)
(declare-fun |!{$(in_main#0)<N>}| () Int)
(declare-fun |!{$(in_main#0)<N>}.next| () Int)
(declare-fun |!{$(in_main#0)<&array>}| () Int)
(declare-fun |!{$(in_main#0)<&array>}.next| () Int)
(declare-fun |!{$(in_main#0)<k>}| () Int)
(declare-fun |!{$(in_main#0)<k>}.next| () Int)
(declare-fun |!{%memaddr}| () Int)
(declare-fun |!{%memaddr}.next| () Int)
(declare-fun |!{%mem.0}| () (Array Int Int))
(declare-fun |!{%mem.0}.next| () (Array Int Int))
(declare-fun |!{$(in_main#0)<$(in___VERIFIER_nondet_int#1)<h#<__VERIFIER_nondet_int.return>>>}| () Int)
(declare-fun |!{$(in_main#0)<$(in___VERIFIER_nondet_int#3)<h#<__VERIFIER_nondet_int.return>>>}| () Int)
(declare-fun |!{$(in_main#0)<$(in___VERIFIER_nondet_int#4)<h#<__VERIFIER_nondet_int.return>>>}| () Int)
(declare-fun |!{$(in_main#0)<$(in_rec_array_find#5)<$temp.1>>}| () Int)
(declare-fun |!{$(in_main#0)<$(in_rec_array_find#5)<$tmp>>}| () Int)
(declare-fun |!{$(in_main#0)<$(in_rec_array_find#5)<$(in_rec_array_find#0)<$temp.1>>>}| () Int)
(declare-fun |!{$(in_main#0)<$(in_rec_array_find#5)<$(in_rec_array_find#0)<$tmp>>>}| () Int)
(declare-fun !pc () Int)
(declare-fun !pc.next () Int)
(declare-fun rec_array_find<0> (Int Int Int Int) Int)
(declare-fun |%{$(in_main#0)<$(in_rec_array_find#5)<$(in_rec_array_find#0)<$temp.1>>>}#3| () Int)
(declare-fun |%{$(in_main#0)<$(in_rec_array_find#5)<$(in_rec_array_find#0)<$tmp>>>}#3| () Int)
(declare-fun |%{$(in_main#0)<$(in_rec_array_find#5)<$(in_rec_array_find#0)<rec_array_find.return>>>}#3| () Int)
(declare-fun |%{$(in_main#0)<$(in_rec_array_find#5)<$temp.1>>}#3| () Int)
(declare-fun |%{$(in_main#0)<$(in_rec_array_find#5)<$tmp>>}#3| () Int)
(declare-fun |%{$(in_main#0)<$(in_rec_array_find#5)<rec_array_find.return>>}#3| () Int)
(define-fun .def_57 () Int (! !pc :next !pc.next))
(define-fun .def_60 () Bool (! (= .def_57 2) :init true))
(define-fun .def_228 () Bool (= .def_57 50))
(define-fun .def_99 () Bool (= !pc.next 0))
(define-fun .def_235 () Bool (and .def_99 .def_228))
(define-fun .def_10 () Int (! |!{$(in_main#0)<&array>}| :next |!{$(in_main#0)<&array>}.next|))
(define-fun .def_192 () Int (+ .def_10 |%{$(in_main#0)<$(in_rec_array_find#5)<rec_array_find.return>>}#3|))
(define-fun .def_16 () (Array Int Int) (! |!{%mem.0}| :next |!{%mem.0}.next|))
(define-fun .def_193 () Int (select .def_16 .def_192))
(define-fun .def_194 () Bool (= |!{$(in_main#0)<$(in___VERIFIER_nondet_int#4)<h#<__VERIFIER_nondet_int.return>>>}| .def_193))
(define-fun .def_195 () Int (ite .def_194 1 0))
(define-fun .def_196 () Bool (= .def_195 0))
(define-fun .def_197 () Bool (not .def_196))
(define-fun .def_187 () Bool (= |%{$(in_main#0)<$(in_rec_array_find#5)<rec_array_find.return>>}#3| (- 1)))
(define-fun .def_191 () Bool (not .def_187))
(define-fun .def_201 () Bool (and .def_191 .def_197))
(define-fun .def_206 () Bool (or .def_187 .def_201))
(define-fun .def_14 () Int (! |!{%memaddr}| :next |!{%memaddr}.next|))
(define-fun .def_94 () Bool (= .def_14 |!{%memaddr}.next|))
(define-fun .def_12 () Int (! |!{$(in_main#0)<k>}| :next |!{$(in_main#0)<k>}.next|))
(define-fun .def_92 () Bool (= .def_12 |!{$(in_main#0)<k>}.next|))
(define-fun .def_90 () Bool (= .def_10 |!{$(in_main#0)<&array>}.next|))
(define-fun .def_8 () Int (! |!{$(in_main#0)<N>}| :next |!{$(in_main#0)<N>}.next|))
(define-fun .def_89 () Bool (= .def_8 |!{$(in_main#0)<N>}.next|))
(define-fun .def_91 () Bool (and .def_89 .def_90))
(define-fun .def_93 () Bool (and .def_91 .def_92))
(define-fun .def_95 () Bool (and .def_93 .def_94))
(define-fun .def_82 () Bool (= .def_16 |!{%mem.0}.next|))
(define-fun .def_96 () Bool (and .def_82 .def_95))
(define-fun .def_225 () Bool (and .def_96 .def_206))
(define-fun .def_165 () Bool (= |!{$(in_main#0)<$(in_rec_array_find#5)<$temp.1>>}| |%{$(in_main#0)<$(in_rec_array_find#5)<$temp.1>>}#3|))
(define-fun .def_106 () Bool (<= .def_8 0))
(define-fun .def_185 () Bool (and .def_106 .def_165))
(define-fun .def_171 () Bool (= |!{$(in_main#0)<$(in_rec_array_find#5)<$tmp>>}| |%{$(in_main#0)<$(in_rec_array_find#5)<$tmp>>}#3|))
(define-fun .def_186 () Bool (and .def_171 .def_185))
(define-fun .def_188 () Bool (and .def_186 .def_187))
(define-fun .def_178 () Bool (= |%{$(in_main#0)<$(in_rec_array_find#5)<$(in_rec_array_find#0)<rec_array_find.return>>>}#3| |%{$(in_main#0)<$(in_rec_array_find#5)<rec_array_find.return>>}#3|))
(define-fun .def_172 () Bool (= |%{$(in_main#0)<$(in_rec_array_find#5)<$(in_rec_array_find#0)<rec_array_find.return>>>}#3| |%{$(in_main#0)<$(in_rec_array_find#5)<$tmp>>}#3|))
(define-fun .def_166 () Bool (= |%{$(in_main#0)<$(in_rec_array_find#5)<$(in_rec_array_find#0)<rec_array_find.return>>>}#3| |%{$(in_main#0)<$(in_rec_array_find#5)<$temp.1>>}#3|))
(define-fun .def_155 () Bool (= |%{$(in_main#0)<$(in_rec_array_find#5)<$(in_rec_array_find#0)<rec_array_find.return>>>}#3| (- 1)))
(define-fun .def_128 () Bool (= |!{$(in_main#0)<$(in_rec_array_find#5)<$(in_rec_array_find#0)<$temp.1>>>}| |%{$(in_main#0)<$(in_rec_array_find#5)<$(in_rec_array_find#0)<$temp.1>>>}#3|))
(define-fun .def_111 () Bool (<= .def_8 1))
(define-fun .def_153 () Bool (and .def_111 .def_128))
(define-fun .def_134 () Bool (= |!{$(in_main#0)<$(in_rec_array_find#5)<$(in_rec_array_find#0)<$tmp>>>}| |%{$(in_main#0)<$(in_rec_array_find#5)<$(in_rec_array_find#0)<$tmp>>>}#3|))
(define-fun .def_154 () Bool (and .def_134 .def_153))
(define-fun .def_156 () Bool (and .def_154 .def_155))
(define-fun .def_117 () Int (rec_array_find<0> .def_10 |!{$(in_main#0)<$(in___VERIFIER_nondet_int#4)<h#<__VERIFIER_nondet_int.return>>>}| 2 .def_8))
(define-fun .def_141 () Bool (= .def_117 |%{$(in_main#0)<$(in_rec_array_find#5)<$(in_rec_array_find#0)<rec_array_find.return>>>}#3|))
(define-fun .def_135 () Bool (= .def_117 |%{$(in_main#0)<$(in_rec_array_find#5)<$(in_rec_array_find#0)<$tmp>>>}#3|))
(define-fun .def_129 () Bool (= .def_117 |%{$(in_main#0)<$(in_rec_array_find#5)<$(in_rec_array_find#0)<$temp.1>>>}#3|))
(define-fun .def_113 () Int (+ .def_10 1))
(define-fun .def_114 () Int (select .def_16 .def_113))
(define-fun .def_115 () Bool (= |!{$(in_main#0)<$(in___VERIFIER_nondet_int#4)<h#<__VERIFIER_nondet_int.return>>>}| .def_114))
(define-fun .def_116 () Bool (not .def_115))
(define-fun .def_131 () Bool (and .def_116 .def_129))
(define-fun .def_137 () Bool (and .def_131 .def_135))
(define-fun .def_143 () Bool (and .def_137 .def_141))
(define-fun .def_140 () Bool (= |%{$(in_main#0)<$(in_rec_array_find#5)<$(in_rec_array_find#0)<rec_array_find.return>>>}#3| 1))
(define-fun .def_130 () Bool (and .def_115 .def_128))
(define-fun .def_136 () Bool (and .def_130 .def_134))
(define-fun .def_142 () Bool (and .def_136 .def_140))
(define-fun .def_144 () Bool (or .def_142 .def_143))
(define-fun .def_112 () Bool (not .def_111))
(define-fun .def_145 () Bool (and .def_112 .def_144))
(define-fun .def_157 () Bool (or .def_145 .def_156))
(define-fun .def_108 () Int (select .def_16 .def_10))
(define-fun .def_109 () Bool (= |!{$(in_main#0)<$(in___VERIFIER_nondet_int#4)<h#<__VERIFIER_nondet_int.return>>>}| .def_108))
(define-fun .def_110 () Bool (not .def_109))
(define-fun .def_158 () Bool (and .def_110 .def_157))
(define-fun .def_168 () Bool (and .def_158 .def_166))
(define-fun .def_174 () Bool (and .def_168 .def_172))
(define-fun .def_180 () Bool (and .def_174 .def_178))
(define-fun .def_177 () Bool (= |%{$(in_main#0)<$(in_rec_array_find#5)<rec_array_find.return>>}#3| 0))
(define-fun .def_167 () Bool (and .def_109 .def_165))
(define-fun .def_173 () Bool (and .def_167 .def_171))
(define-fun .def_179 () Bool (and .def_173 .def_177))
(define-fun .def_181 () Bool (or .def_179 .def_180))
(define-fun .def_107 () Bool (not .def_106))
(define-fun .def_182 () Bool (and .def_107 .def_181))
(define-fun .def_189 () Bool (or .def_182 .def_188))
(define-fun .def_226 () Bool (and .def_189 .def_225))
(define-fun .def_101 () Bool (<= .def_8 .def_12))
(define-fun .def_227 () Bool (and .def_101 .def_226))
(define-fun .def_236 () Bool (and .def_227 .def_235))
(define-fun .def_231 () Bool (= !pc.next 176))
(define-fun .def_232 () Bool (and .def_228 .def_231))
(define-fun .def_217 () Bool (and .def_89 .def_196))
(define-fun .def_218 () Bool (and .def_90 .def_217))
(define-fun .def_219 () Bool (and .def_92 .def_218))
(define-fun .def_220 () Bool (and .def_94 .def_219))
(define-fun .def_221 () Bool (and .def_82 .def_220))
(define-fun .def_222 () Bool (and .def_191 .def_221))
(define-fun .def_223 () Bool (and .def_189 .def_222))
(define-fun .def_224 () Bool (and .def_101 .def_223))
(define-fun .def_233 () Bool (and .def_224 .def_232))
(define-fun .def_86 () Bool (= !pc.next 50))
(define-fun .def_229 () Bool (and .def_86 .def_228))
(define-fun .def_103 () Int (+ .def_10 .def_12))
(define-fun .def_104 () (Array Int Int) (store .def_16 .def_103 |!{$(in_main#0)<$(in___VERIFIER_nondet_int#3)<h#<__VERIFIER_nondet_int.return>>>}|))
(define-fun .def_214 () Bool (= |!{%mem.0}.next| .def_104))
(define-fun .def_209 () Int (* (- 1) |!{$(in_main#0)<k>}.next|))
(define-fun .def_210 () Int (+ .def_12 .def_209))
(define-fun .def_211 () Bool (= .def_210 (- 1)))
(define-fun .def_212 () Bool (and .def_91 .def_211))
(define-fun .def_213 () Bool (and .def_94 .def_212))
(define-fun .def_215 () Bool (and .def_213 .def_214))
(define-fun .def_102 () Bool (not .def_101))
(define-fun .def_216 () Bool (and .def_102 .def_215))
(define-fun .def_230 () Bool (and .def_216 .def_229))
(define-fun .def_234 () Bool (or .def_230 .def_233))
(define-fun .def_237 () Bool (or .def_234 .def_236))
(define-fun .def_87 () Bool (and .def_60 .def_86))
(define-fun .def_80 () Bool (= |!{%memaddr}.next| 2))
(define-fun .def_78 () Bool (= |!{$(in_main#0)<k>}.next| 0))
(define-fun .def_76 () Bool (= |!{$(in_main#0)<&array>}.next| 1))
(define-fun .def_75 () Bool (= |!{$(in_main#0)<N>}.next| |!{$(in_main#0)<$(in___VERIFIER_nondet_int#1)<h#<__VERIFIER_nondet_int.return>>>}|))
(define-fun .def_77 () Bool (and .def_75 .def_76))
(define-fun .def_79 () Bool (and .def_77 .def_78))
(define-fun .def_81 () Bool (and .def_79 .def_80))
(define-fun .def_83 () Bool (and .def_81 .def_82))
(define-fun .def_70 () Bool (<= |!{$(in_main#0)<$(in___VERIFIER_nondet_int#1)<h#<__VERIFIER_nondet_int.return>>>}| 0))
(define-fun .def_71 () Bool (not .def_70))
(define-fun .def_72 () Int (ite .def_71 1 0))
(define-fun .def_73 () Bool (= .def_72 0))
(define-fun .def_74 () Bool (not .def_73))
(define-fun .def_84 () Bool (and .def_74 .def_83))
(define-fun .def_88 () Bool (and .def_84 .def_87))
(define-fun .def_238 () Bool (! (or .def_88 .def_237) :trans true))
(define-fun .def_98 () Bool (= .def_57 176))
(define-fun .def_239 () Bool (! (not .def_98) :invar-property 0 :invar-property-name ||))
(assert true)
